data;
set K:= K1 K2 K3 K4 K5 K6 K7 ;

set F:= F1 F2 ;

set Q:= Q1 Q2 ;

param T:= 45;
param V: 
	K1  K2  K3  K4  K5  K6  K7  :=
Q1	1   1   1   1   0   0   0   
Q2	0   0   0   0   1   1   1   
; # if resorce k is of type q

param TF:= 
K1 6
K2 6
K3 6
K4 6
K5 12
K6 12
K7 12
; # number of continuous time slots resource can fly

param TR:= 
K1 2
K2 2
K3 2
K4 2
K5 4
K6 4
K7 4
; #  number of continuous time slots resource k needs to rest between flights

param P:= 
K1 36
K2 36
K3 36
K4 36
K5 36
K6 36
K7 36
; #  number of continuous time slots a pilot can be present including rest times for resource k 

param N:= 
K1 4
K2 4
K3 4
K4 4
K5 2
K6 2
K7 2
; # max number of flights resource k can fly in the total time period

param A: 
	K1  K2  K3  K4  K5  K6  K7  :=
1	1   1   1   1   1   1   1   
2	1   1   1   1   1   1   1   
3	1   1   1   1   1   1   1   
4	1   1   1   1   1   1   1   
5	1   1   1   1   1   1   1   
6	1   1   1   1   1   1   1   
7	1   1   1   1   1   1   1   
8	1   1   1   1   1   1   1   
9	1   1   1   1   1   1   1   
10	1   1   1   1   1   1   1   
11	1   1   1   1   1   1   1   
12	1   1   1   1   1   1   1   
13	1   1   1   1   1   1   1   
14	1   1   1   1   1   1   1   
15	1   1   1   1   1   1   1   
16	1   1   1   1   1   1   1   
17	1   1   1   1   1   1   1   
18	1   1   1   1   1   1   1   
19	1   1   1   1   1   1   1   
20	1   1   1   1   1   1   1   
21	1   1   1   1   1   1   1   
22	1   1   1   1   1   1   1   
23	1   1   1   1   1   1   1   
24	1   1   1   1   1   1   1   
25	1   1   1   1   1   1   1   
26	1   1   1   1   1   1   1   
27	1   1   1   1   1   1   1   
28	1   1   1   1   1   1   1   
29	1   1   1   1   1   1   1   
30	1   1   1   1   1   1   1   
31	1   1   1   1   1   1   1   
32	1   1   1   1   1   1   1   
33	1   1   1   1   1   1   1   
34	1   1   1   1   1   1   1   
35	1   1   1   1   1   1   1   
36	1   1   1   1   1   1   1   
37	1   1   1   1   1   1   1   
38	1   1   1   1   1   1   1   
39	1   1   1   1   1   1   1   
40	1   1   1   1   1   1   1   
41	1   1   1   1   1   1   1   
42	1   1   1   1   1   1   1   
43	1   1   1   1   1   1   1   
44	1   1   1   1   1   1   1   
45	1   1   1   1   1   1   1   
; # availability of resorce k in time slot t

param B: 
	F1  F2  :=
Q1	1   0   
Q2	0   0   
; # if front f requires resources of type q

param U: 
	F1  F2  :=
K1	0   0   
K2	0   0   
K3	0   0   
K4	0   0   
K5	2   2   
K6	1   1   
K7	0   0   
; # transit time of resource

param C:= 
K1 900
K2 900
K3 1500
K4 4500
K5 5500
K6 5500
K7 5500
; #  water capacity of resource k

param S:= 
F1 10
F2 9
; # max number of resources that can fly at front f in the same time slot

param D:= 

[*,*,F1 ]:  K1    K2    K3    K4    K5    K6    K7    :=
1           1.99  1.99  1.99  1.58  1.19  1.19  1.19  
2           1.99  1.99  1.99  1.58  1.19  1.19  1.19  
3           1.99  1.99  1.99  1.58  1.19  1.19  1.19  
4           1.99  1.99  1.99  1.58  1.19  1.19  1.19  
5           1.99  1.99  1.99  1.58  1.19  1.19  1.19  
6           1.99  1.99  1.99  1.58  1.19  1.19  1.19  
7           1.99  1.99  1.99  1.58  1.19  1.19  1.19  
8           1.99  1.99  1.99  1.58  1.19  1.19  1.19  
9           1.99  1.99  1.99  1.58  1.19  1.19  1.19  
10          1.99  1.99  1.99  1.58  1.19  1.19  1.19  
11          1.99  1.99  1.99  1.58  1.19  1.19  1.19  
12          1.99  1.99  1.99  1.58  1.19  1.19  1.19  
13          1.99  1.99  1.99  1.58  1.19  1.19  1.19  
14          1.99  1.99  1.99  1.58  1.19  1.19  1.19  
15          1.99  1.99  1.99  1.58  1.19  1.19  1.19  
16          1.99  1.99  1.99  1.58  1.19  1.19  1.19  
17          1.99  1.99  1.99  1.58  1.19  1.19  1.19  
18          1.99  1.99  1.99  1.58  1.19  1.19  1.19  
19          1.99  1.99  1.99  1.58  1.19  1.19  1.19  
20          1.99  1.99  1.99  1.58  1.19  1.19  1.19  
21          1.99  1.99  1.99  1.58  1.19  1.19  1.19  
22          1.99  1.99  1.99  1.58  1.19  1.19  1.19  
23          1.99  1.99  1.99  1.58  1.19  1.19  1.19  
24          1.99  1.99  1.99  1.58  1.19  1.19  1.19  
25          1.89  1.89  1.89  1.50  1.13  1.13  1.13  
26          1.89  1.89  1.89  1.50  1.13  1.13  1.13  
27          1.89  1.89  1.89  1.50  1.13  1.13  1.13  
28          1.89  1.89  1.89  1.50  1.13  1.13  1.13  
29          1.89  1.89  1.89  1.50  1.13  1.13  1.13  
30          1.89  1.89  1.89  1.50  1.13  1.13  1.13  
31          1.89  1.89  1.89  1.50  1.13  1.13  1.13  
32          1.89  1.89  1.89  1.50  1.13  1.13  1.13  
33          1.89  1.89  1.89  1.50  1.13  1.13  1.13  
34          1.99  1.99  1.99  1.58  1.19  1.19  1.19  
35          1.99  1.99  1.99  1.58  1.19  1.19  1.19  
36          1.99  1.99  1.99  1.58  1.19  1.19  1.19  
37          1.99  1.99  1.99  1.58  1.19  1.19  1.19  
38          1.99  1.99  1.99  1.58  1.19  1.19  1.19  
39          1.99  1.99  1.99  1.58  1.19  1.19  1.19  
40          1.99  1.99  1.99  1.58  1.19  1.19  1.19  
41          1.99  1.99  1.99  1.58  1.19  1.19  1.19  
42          1.99  1.99  1.99  1.58  1.19  1.19  1.19  
43          1.99  1.99  1.99  1.58  1.19  1.19  1.19  
44          1.99  1.99  1.99  1.58  1.19  1.19  1.19  
45          1.99  1.99  1.99  1.58  1.19  1.19  1.19  

[*,*,F2 ]:  K1    K2    K3    K4    K5    K6    K7    :=
1           1.85  1.85  1.85  1.48  1.11  1.11  1.11  
2           1.85  1.85  1.85  1.48  1.11  1.11  1.11  
3           1.85  1.85  1.85  1.48  1.11  1.11  1.11  
4           1.85  1.85  1.85  1.48  1.11  1.11  1.11  
5           1.85  1.85  1.85  1.48  1.11  1.11  1.11  
6           1.85  1.85  1.85  1.48  1.11  1.11  1.11  
7           1.85  1.85  1.85  1.48  1.11  1.11  1.11  
8           1.85  1.85  1.85  1.48  1.11  1.11  1.11  
9           1.85  1.85  1.85  1.48  1.11  1.11  1.11  
10          1.85  1.85  1.85  1.48  1.11  1.11  1.11  
11          1.85  1.85  1.85  1.48  1.11  1.11  1.11  
12          1.85  1.85  1.85  1.48  1.11  1.11  1.11  
13          1.85  1.85  1.85  1.48  1.11  1.11  1.11  
14          1.85  1.85  1.85  1.48  1.11  1.11  1.11  
15          1.85  1.85  1.85  1.48  1.11  1.11  1.11  
16          1.85  1.85  1.85  1.48  1.11  1.11  1.11  
17          1.85  1.85  1.85  1.48  1.11  1.11  1.11  
18          1.85  1.85  1.85  1.48  1.11  1.11  1.11  
19          1.85  1.85  1.85  1.48  1.11  1.11  1.11  
20          1.85  1.85  1.85  1.48  1.11  1.11  1.11  
21          1.85  1.85  1.85  1.48  1.11  1.11  1.11  
22          1.85  1.85  1.85  1.48  1.11  1.11  1.11  
23          1.85  1.85  1.85  1.48  1.11  1.11  1.11  
24          1.85  1.85  1.85  1.48  1.11  1.11  1.11  
25          1.76  1.76  1.76  1.40  1.05  1.05  1.05  
26          1.76  1.76  1.76  1.40  1.05  1.05  1.05  
27          1.76  1.76  1.76  1.40  1.05  1.05  1.05  
28          1.76  1.76  1.76  1.40  1.05  1.05  1.05  
29          1.76  1.76  1.76  1.40  1.05  1.05  1.05  
30          1.76  1.76  1.76  1.40  1.05  1.05  1.05  
31          1.76  1.76  1.76  1.40  1.05  1.05  1.05  
32          1.76  1.76  1.76  1.40  1.05  1.05  1.05  
33          1.76  1.76  1.76  1.40  1.05  1.05  1.05  
34          1.85  1.85  1.85  1.48  1.11  1.11  1.11  
35          1.85  1.85  1.85  1.48  1.11  1.11  1.11  
36          1.85  1.85  1.85  1.48  1.11  1.11  1.11  
37          1.85  1.85  1.85  1.48  1.11  1.11  1.11  
38          1.85  1.85  1.85  1.48  1.11  1.11  1.11  
39          1.85  1.85  1.85  1.48  1.11  1.11  1.11  
40          1.85  1.85  1.85  1.48  1.11  1.11  1.11  
41          1.85  1.85  1.85  1.48  1.11  1.11  1.11  
42          1.85  1.85  1.85  1.48  1.11  1.11  1.11  
43          1.85  1.85  1.85  1.48  1.11  1.11  1.11  
44          1.85  1.85  1.85  1.48  1.11  1.11  1.11  
45          1.85  1.85  1.85  1.48  1.11  1.11  1.11  
; # downloads resource k can do at front f in time t if intermediate time slot

param E:= 

[*,*,F1 ]:  K1    K2    K3    K4    K5    K6    K7    :=
1           0.30  0.44  0.00  0.73  0.19  0.38  0.29  
2           0.30  0.44  0.00  0.73  0.19  0.38  0.29  
3           0.30  0.44  0.00  0.73  0.19  0.38  0.29  
4           0.30  0.44  0.00  0.73  0.19  0.38  0.29  
5           0.30  0.44  0.00  0.73  0.19  0.38  0.29  
6           0.30  0.44  0.00  0.73  0.19  0.38  0.29  
7           0.30  0.44  0.00  0.73  0.19  0.38  0.29  
8           0.30  0.44  0.00  0.73  0.19  0.38  0.29  
9           0.30  0.44  0.00  0.73  0.19  0.38  0.29  
10          0.30  0.44  0.00  0.73  0.19  0.38  0.29  
11          0.30  0.44  0.00  0.73  0.19  0.38  0.29  
12          0.30  0.44  0.00  0.73  0.19  0.38  0.29  
13          0.30  0.44  0.00  0.73  0.19  0.38  0.29  
14          0.30  0.44  0.00  0.73  0.19  0.38  0.29  
15          0.30  0.44  0.00  0.73  0.19  0.38  0.29  
16          0.30  0.44  0.00  0.73  0.19  0.38  0.29  
17          0.30  0.44  0.00  0.73  0.19  0.38  0.29  
18          0.30  0.44  0.00  0.73  0.19  0.38  0.29  
19          0.30  0.44  0.00  0.73  0.19  0.38  0.29  
20          0.30  0.44  0.00  0.73  0.19  0.38  0.29  
21          0.30  0.44  0.00  0.73  0.19  0.38  0.29  
22          0.30  0.44  0.00  0.73  0.19  0.38  0.29  
23          0.30  0.44  0.00  0.73  0.19  0.38  0.29  
24          0.30  0.44  0.00  0.73  0.19  0.38  0.29  
25          0.28  0.42  0.00  0.69  0.18  0.36  0.27  
26          0.28  0.42  0.00  0.69  0.18  0.36  0.27  
27          0.28  0.42  0.00  0.69  0.18  0.36  0.27  
28          0.28  0.42  0.00  0.69  0.18  0.36  0.27  
29          0.28  0.42  0.00  0.69  0.18  0.36  0.27  
30          0.28  0.42  0.00  0.69  0.18  0.36  0.27  
31          0.28  0.42  0.00  0.69  0.18  0.36  0.27  
32          0.28  0.42  0.00  0.69  0.18  0.36  0.27  
33          0.28  0.42  0.00  0.69  0.18  0.36  0.27  
34          0.30  0.44  0.00  0.73  0.19  0.38  0.29  
35          0.30  0.44  0.00  0.73  0.19  0.38  0.29  
36          0.30  0.44  0.00  0.73  0.19  0.38  0.29  
37          0.30  0.44  0.00  0.73  0.19  0.38  0.29  
38          0.30  0.44  0.00  0.73  0.19  0.38  0.29  
39          0.30  0.44  0.00  0.73  0.19  0.38  0.29  
40          0.30  0.44  0.00  0.73  0.19  0.38  0.29  
41          0.30  0.44  0.00  0.73  0.19  0.38  0.29  
42          0.30  0.44  0.00  0.73  0.19  0.38  0.29  
43          0.30  0.44  0.00  0.73  0.19  0.38  0.29  
44          0.30  0.44  0.00  0.73  0.19  0.38  0.29  
45          0.30  0.44  0.00  0.73  0.19  0.38  0.29  

[*,*,F2 ]:  K1    K2    K3    K4    K5    K6    K7    :=
1           0.15  0.35  0.19  0.74  0.21  0.33  0.30  
2           0.15  0.35  0.19  0.74  0.21  0.33  0.30  
3           0.15  0.35  0.19  0.74  0.21  0.33  0.30  
4           0.15  0.35  0.19  0.74  0.21  0.33  0.30  
5           0.15  0.35  0.19  0.74  0.21  0.33  0.30  
6           0.15  0.35  0.19  0.74  0.21  0.33  0.30  
7           0.15  0.35  0.19  0.74  0.21  0.33  0.30  
8           0.15  0.35  0.19  0.74  0.21  0.33  0.30  
9           0.15  0.35  0.19  0.74  0.21  0.33  0.30  
10          0.15  0.35  0.19  0.74  0.21  0.33  0.30  
11          0.15  0.35  0.19  0.74  0.21  0.33  0.30  
12          0.15  0.35  0.19  0.74  0.21  0.33  0.30  
13          0.15  0.35  0.19  0.74  0.21  0.33  0.30  
14          0.15  0.35  0.19  0.74  0.21  0.33  0.30  
15          0.15  0.35  0.19  0.74  0.21  0.33  0.30  
16          0.15  0.35  0.19  0.74  0.21  0.33  0.30  
17          0.15  0.35  0.19  0.74  0.21  0.33  0.30  
18          0.15  0.35  0.19  0.74  0.21  0.33  0.30  
19          0.15  0.35  0.19  0.74  0.21  0.33  0.30  
20          0.15  0.35  0.19  0.74  0.21  0.33  0.30  
21          0.15  0.35  0.19  0.74  0.21  0.33  0.30  
22          0.15  0.35  0.19  0.74  0.21  0.33  0.30  
23          0.15  0.35  0.19  0.74  0.21  0.33  0.30  
24          0.15  0.35  0.19  0.74  0.21  0.33  0.30  
25          0.14  0.33  0.18  0.70  0.20  0.32  0.28  
26          0.14  0.33  0.18  0.70  0.20  0.32  0.28  
27          0.14  0.33  0.18  0.70  0.20  0.32  0.28  
28          0.14  0.33  0.18  0.70  0.20  0.32  0.28  
29          0.14  0.33  0.18  0.70  0.20  0.32  0.28  
30          0.14  0.33  0.18  0.70  0.20  0.32  0.28  
31          0.14  0.33  0.18  0.70  0.20  0.32  0.28  
32          0.14  0.33  0.18  0.70  0.20  0.32  0.28  
33          0.14  0.33  0.18  0.70  0.20  0.32  0.28  
34          0.15  0.35  0.19  0.74  0.21  0.33  0.30  
35          0.15  0.35  0.19  0.74  0.21  0.33  0.30  
36          0.15  0.35  0.19  0.74  0.21  0.33  0.30  
37          0.15  0.35  0.19  0.74  0.21  0.33  0.30  
38          0.15  0.35  0.19  0.74  0.21  0.33  0.30  
39          0.15  0.35  0.19  0.74  0.21  0.33  0.30  
40          0.15  0.35  0.19  0.74  0.21  0.33  0.30  
41          0.15  0.35  0.19  0.74  0.21  0.33  0.30  
42          0.15  0.35  0.19  0.74  0.21  0.33  0.30  
43          0.15  0.35  0.19  0.74  0.21  0.33  0.30  
44          0.15  0.35  0.19  0.74  0.21  0.33  0.30  
45          0.15  0.35  0.19  0.74  0.21  0.33  0.30  
; # downloads resource k can do at front f in time t if starting or ending flight

param W: 
	F1        F2        :=
1	920.79    495.81    
2	3683.15   1983.24   
3	3683.15   1983.24   
4	3683.15   1983.24   
5	3683.15   1983.24   
6	3683.15   1983.24   
7	3683.15   1983.24   
8	3683.15   1983.24   
9	3683.15   1983.24   
10	3683.15   1983.24   
11	3683.15   1983.24   
12	3683.15   1983.24   
13	3683.15   1983.24   
14	3683.15   1983.24   
15	3683.15   1983.24   
16	3683.15   1983.24   
17	3683.15   1983.24   
18	3683.15   1983.24   
19	3683.15   1983.24   
20	3683.15   1983.24   
21	3683.15   1983.24   
22	3683.15   1983.24   
23	3683.15   1983.24   
24	3683.15   1983.24   
25	3683.15   1983.24   
26	3683.15   1983.24   
27	3683.15   1983.24   
28	3683.15   1983.24   
29	3683.15   1983.24   
30	3683.15   1983.24   
31	3683.15   1983.24   
32	3683.15   1983.24   
33	3683.15   1983.24   
34	3683.15   1983.24   
35	3683.15   1983.24   
36	3683.15   1983.24   
37	3683.15   1983.24   
38	3683.15   1983.24   
39	3683.15   1983.24   
40	3683.15   1983.24   
41	3683.15   1983.24   
42	3683.15   1983.24   
43	3683.15   1983.24   
44	3683.15   1983.24   
45	920.79    495.81    
; # water needed at front f in time slot t

param M := 100000000; 

param a1:= 10000000;

param a2:= 100;

param a3:= 0.0001;
